c ---- [ banner ] ------------------------------------------------------------
c
c Kissat SAT Solver
c 
c Copyright (c) 2021-2023 Armin Biere University of Freiburg
c Copyright (c) 2019-2021 Armin Biere Johannes Kepler University Linz
c 
c Version 3.1.1 unknown
c gcc (Ubuntu 9.4.0-1ubuntu1~20.04.2) 9.4.0 -W -Wall -O3 -DNDEBUG
c Mon Feb 26 18:18:52 CET 2024 Linux OptiPlex-7080 5.15.0-88-generic x86_64
c
c ---- [ parsing ] -----------------------------------------------------------
c
c opened and reading DIMACS file:
c
c   /home/oliveras/SAT-comp-2023//685d37e93ba26197925353e58026ae10-hash_table_find_safety_size_12.cnf
c
c parsed 'p cnf 5861110 27150271' header
c closing input after reading 654748194 bytes (624 MB)
c finished parsing after 6.22 seconds
c
c ---- [ options ] -----------------------------------------------------------
c
c --seed=1                         (different from default '0')
c
c ---- [ solving ] -----------------------------------------------------------
c
c  seconds   switched conflicts       irredundant    variables
c           MB reductions redundant            trail       remaining
c            level restarts      binary           glue
c
c *  6.22 1642 0 0 0  0   0   0 3896249 19429433 0% 0 5238286 89%
c {  6.22 1642 0 0 0  0   0   0 3896249 19429433 0% 0 5238286 89%
c i  6.35 1642 674 0 0  0 1322 920 3896252 19429433 1% 15 5238285 89%
c -  8.32 1593 674 0 1  0 1322 913 3826171 19233045 1% 15 5238285 89%
c }  8.32 1593 674 1 1  0 1322 913 3826171 19233045 1% 15 5238285 89%
c [  8.32 1593 0 1 1  0 1322 913 3826171 19233045 0% 0 5238285 89%
c B  8.52 1632 0 1 1  0 1322 913 3826171 19233045 0% 0 5238285 89%
c ]  8.74 1632 387 2 1  0 1458 1015 3826179 19233045 2% 75 5238285 89%
c {  8.74 1632 674 2 1  0 1458 1015 3826179 19233045 1% 15 5238285 89%
c i 13.24 1650 698 2 1  3 1595 1128 3826193 19233043 4% 17 5238283 89%
c i 14.97 1653 682 2 1 15 1653 1167 3826206 19233043 5% 19 5238279 89%
c i 15.54 1653 680 2 1 17 1659 1172 3826206 19233043 5% 19 5238278 89%
c i 17.55 1665 684 2 1 43 2011 1516 3826211 19233043 5% 19 5238277 89%
c i 17.80 1671 682 2 1 46 2019 1521 3826211 19233043 5% 19 5208421 89%
c i 18.81 1673 639 2 1 54 2322 1819 3826211 19233043 4% 17 5208400 89%
c - 19.25 1673 639 2 2 54 2322 1748 3750324 19233043 4% 17 5208400 89%
c i 21.07 1675 636 2 2 60 2333 1755 3750327 19233043 4% 17 5208399 89%
c i 24.00 1675 632 2 2 76 2355 1772 3750331 19233043 4% 18 5168283 88%
c i 27.95 1675 634 2 2 77 2373 1774 3750346 19233043 5% 17 5168282 88%
c i 29.39 1675 632 2 2 79 2391 1787 3750350 19233043 5% 17 5168281 88%
c
c  seconds     switched conflicts         irredundant     variables
c           MB  reductions  redundant              trail        remaining
c             level restarts         binary            glue
c
c i 30.44 1675 627 2 2 82 2410 1801 3750354 19233043 5% 17 5168278 88%
c i 31.17 1677 624 2 2 84 2423 1807 3750358 19233043 5% 17 5168277 88%
c i 31.60 1679 623 2 2 84 2427 1809 3750359 19233043 5% 17 5168271 88%
c i 31.89 1679 622 2 2 84 2433 1813 3750360 19233043 5% 17 5168270 88%
c i 31.90 1679 620 2 2 84 2440 1818 3750361 19233043 5% 17 5168269 88%
c i 33.94 1685 617 2 2 90 2453 1826 3750365 19233043 5% 17 5168268 88%
c } 34.61 1691 617 3 2 90 2460 1827 3750367 19233043 6% 17 5168268 88%
c [ 34.61 1691 387 3 2 90 2460 1827 3750367 19233043 2% 75 5168268 88%
c W 39.20 1704 387 3 2 90 2460 1827 3605933 18602247 2% 75 5168268 88%
c i 41.89 1704 583 3 2 90 2570 1891 3605946 18602247 23% 52 5168267 88%
c i 43.29 1706 520 3 2 90 2624 1934 3605953 18602247 25% 50 5168266 88%
c - 60.49 1712 407 3 3 90 3738 465 3606769 18602247 46% 23 5168266 88%
c i 61.41 1714 440 3 3 90 3781 501 3606771 18602247 45% 23 5168261 88%
c ] 68.53 1716 546 4 3 90 4011 538 3606772 18602247 40% 38 5168261 88%
c { 68.53 1716 617 4 3 90 4011 538 3606772 18602247 6% 17 5168261 88%
c i 69.58 1723 624 4 3 91 4028 548 3606773 18602247 6% 18 3803672 65%
c i 69.58 1723 624 4 3 91 4029 548 3606773 18602247 6% 18 3802978 65%
c i 69.61 1723 624 4 3 92 4030 548 3606773 18602247 6% 18 3802977 65%
c i 69.69 1723 623 4 3 92 4033 550 3606773 18602247 6% 18 3801960 65%
c i 69.72 1723 623 4 3 93 4034 550 3606773 18602247 6% 18 3801285 65%
c
c  seconds     switched conflicts        irredundant     variables
c           MB  reductions  redundant             trail        remaining
c             level restarts        binary            glue
c
c i 69.76 1723 623 4 3 94 4036 551 3606773 18602247 6% 18 3801284 65%
c i 69.93 1723 621 4 3 96 4042 556 3606773 18602247 6% 18 3801281 65%
c i 70.23 1723 620 4 3 97 4046 557 3606775 18602247 6% 17 3801280 65%
c i 78.14 1725 566 4 3 97 4435 669 3606835 18602247 9% 16 3801278 65%
c i 80.65 1725 558 4 3 112 4519 720 3606841 18602247 9% 17 3801262 65%
c i 82.22 1727 553 4 3 126 4561 750 3606848 18602245 9% 17 3801244 65%
c i 82.25 1727 554 4 3 126 4562 750 3606848 18602245 9% 17 3801243 65%
c i 83.04 1727 559 4 3 126 4630 803 3606853 18602245 9% 17 3801242 65%
c i 83.27 1727 560 4 3 128 4634 806 3606853 18602245 9% 17 3801241 65%
c i 84.88 1727 556 4 3 136 4656 821 3606857 18602245 9% 17 3801182 65%
c i 84.89 1727 556 4 3 136 4657 821 3606857 18602245 9% 17 3801157 65%
c i 85.21 1727 555 4 3 139 4667 827 3606859 18602245 9% 17 3801154 65%
c i 96.19 1729 517 4 3 140 5169 1091 3606860 18602245 13% 16 3791175 65%
c i 97.05 1731 524 4 3 140 5280 1133 3606885 18602244 13% 16 3790897 65%
c i 97.11 1731 524 4 3 141 5289 1141 3606885 18602244 13% 16 3790627 65%
c i 97.19 1731 524 4 3 144 5296 1146 3606886 18602243 13% 17 3790568 65%
c i 97.76 1731 521 4 3 150 5314 1162 3606887 18602243 13% 17 3790564 65%
c i 97.78 1731 521 4 3 151 5315 1162 3606887 18602243 13% 17 3790562 65%
c i 98.40 1731 511 4 3 170 5398 1165 3606936 18602243 13% 17 3734890 64%
c i 98.85 1731 509 4 3 177 5423 1181 3606940 18602243 13% 17 3734889 64%
c
c  seconds      switched conflicts          irredundant     variables
c            MB  reductions   redundant              trail        remaining
c              level restarts          binary            glue
c
c d 100.47 1731 509 4 3 177 5428 1077 5644210 9191181 13% 17 3673488 63%
c b 101.98 1806 509 4 3 177 5428 1077 5644210 9191181 13% 17 3637358 62%
c u 104.36 1810 509 4 3 177 5428 1011 5644256 9191181 13% 17 3637356 62%
c v 107.75 1810 509 4 3 177 5428 1000 5644256 9191181 13% 17 3637356 62%
c w 114.01 1412 509 4 3 177 5428 1000 5683425 9061132 13% 17 3637356 62%
c = 119.36 1483 509 4 3 177 5428 1000 5816433 8962064 13% 17 3595650 61%
c d 120.53 1498 509 4 3 177 5428 986 3566480 8956042 13% 17 2552734 44%
c t 121.76 1634 509 4 3 177 5428 986 3566472 8956042 13% 17 2552718 44%
c b 122.05 1634 509 4 3 177 5428 986 3566472 8956042 13% 17 2523816 43%
c i 122.05 1634 509 4 3 177 5428 986 3566472 8956042 13% 17 2523816 43%
c - 124.35 1376 509 4 4 177 5470 797 3060188 8938894 13% 17 2523816 43%
c i 129.40 1394 507 4 4 179 5883 853 3060301 8938893 14% 16 2523815 43%
c i 129.43 1394 508 4 4 179 5886 855 3060301 8938893 14% 16 2523814 43%
c i 130.35 1398 510 4 4 184 5956 900 3060305 8938893 14% 16 2523813 43%
c i 130.50 1400 508 4 4 184 5971 910 3060308 8938893 14% 16 2522933 43%
c } 136.83 1406 503 5 4 184 6365 952 3060413 8938893 15% 15 2522933 43%
c [ 136.83 1406 546 5 4 184 6365 952 3060413 8938893 40% 38 2522933 43%
c I 136.84 1406 546 5 4 184 6365 952 3060413 8938893 40% 38 2522933 43%
c i 136.91 1406 544 5 4 184 6370 955 3060414 8938893 40% 38 2522932 43%
c i 136.92 1406 544 5 4 184 6372 955 3060415 8938892 40% 38 2522930 43%
c
c  seconds      switched conflicts         irredundant     variables
c            MB  reductions   redundant             trail        remaining
c              level restarts         binary            glue
c
c i 136.93 1406 544 5 4 184 6374 955 3060416 8938891 40% 38 2522929 43%
c i 136.94 1406 543 5 4 184 6376 955 3060417 8938890 40% 38 2522928 43%
c - 137.64 1406 334 5 5 184 7470 1075 3047142 8938890 26% 43 2522928 43%
c i 141.28 1408 332 5 5 185 8058 1292 3047272 8938890 23% 40 2522927 43%
c i 141.28 1408 332 5 5 185 8059 1292 3047272 8938890 23% 40 2522926 43%
c i 141.28 1408 332 5 5 185 8060 1292 3047272 8938890 23% 40 2522925 43%
c i 141.28 1408 332 5 5 185 8061 1292 3047272 8938890 23% 40 2522924 43%
c i 141.28 1408 332 5 5 185 8062 1292 3047272 8938890 23% 40 2522923 43%
c i 141.28 1408 332 5 5 185 8063 1292 3047272 8938890 23% 40 2522922 43%
c i 141.28 1408 332 5 5 185 8064 1292 3047272 8938890 23% 39 2522921 43%
c i 141.28 1408 332 5 5 185 8067 1293 3047272 8938890 23% 39 2522918 43%
c i 141.40 1408 331 5 5 185 8079 1304 3047272 8938890 23% 39 2522917 43%
c i 141.43 1408 331 5 5 185 8083 1307 3047272 8938890 23% 39 2522916 43%
c i 141.43 1408 331 5 5 185 8084 1307 3047272 8938890 23% 39 2522915 43%
c i 141.44 1408 331 5 5 185 8086 1308 3047272 8938890 23% 39 2522914 43%
c i 141.44 1408 331 5 5 185 8087 1308 3047272 8938890 23% 39 2522913 43%
c i 141.44 1408 331 5 5 185 8088 1308 3047272 8938890 23% 39 2522912 43%
c i 141.44 1408 331 5 5 185 8089 1308 3047272 8938890 23% 39 2522911 43%
c i 141.44 1408 331 5 5 185 8090 1308 3047272 8938890 23% 39 2522910 43%
c i 141.44 1408 331 5 5 185 8091 1308 3047272 8938890 23% 39 2522909 43%
c
c  seconds      switched conflicts          irredundant     variables
c            MB  reductions   redundant              trail        remaining
c              level restarts          binary            glue
c
c i 141.44 1408 331 5 5 185 8092 1308 3047272 8938890 23% 39 2522908 43%
c i 141.44 1408 331 5 5 185 8093 1308 3047272 8938890 23% 39 2522907 43%
c i 141.44 1408 331 5 5 185 8099 1310 3047274 8938890 23% 39 2522905 43%
c i 141.44 1408 331 5 5 185 8101 1311 3047274 8938890 23% 39 2522904 43%
c i 141.44 1408 331 5 5 185 8102 1311 3047274 8938890 23% 39 2522903 43%
c i 141.44 1408 331 5 5 185 8103 1311 3047274 8938890 23% 39 2522902 43%
c i 141.44 1408 331 5 5 185 8104 1311 3047274 8938890 23% 39 2522901 43%
c i 141.44 1408 330 5 5 185 8108 1312 3047276 8938890 23% 39 2522900 43%
c i 141.44 1408 330 5 5 185 8110 1313 3047276 8938890 23% 39 2522899 43%
c i 141.44 1408 330 5 5 185 8111 1313 3047276 8938890 23% 39 2522898 43%
c i 141.44 1408 330 5 5 185 8112 1313 3047276 8938890 22% 39 2522897 43%
c i 141.44 1408 330 5 5 185 8114 1314 3047276 8938890 22% 39 2522896 43%
c i 141.44 1408 330 5 5 185 8115 1314 3047276 8938890 22% 39 2522895 43%
c i 141.45 1408 330 5 5 185 8116 1314 3047276 8938890 22% 39 2522894 43%
c i 141.45 1408 330 5 5 185 8117 1314 3047276 8938890 22% 39 2522893 43%
c i 141.45 1408 330 5 5 185 8118 1314 3047276 8938890 22% 39 2522892 43%
c i 141.45 1408 330 5 5 185 8119 1314 3047276 8938890 22% 39 2522891 43%
c i 141.45 1408 330 5 5 185 8124 1318 3047276 8938890 22% 39 2522890 43%
c i 141.45 1408 330 5 5 185 8125 1318 3047276 8938890 22% 39 2522889 43%
c i 141.45 1408 330 5 5 185 8126 1318 3047276 8938890 22% 39 2522888 43%
c
c  seconds      switched conflicts          irredundant     variables
c            MB  reductions   redundant              trail        remaining
c              level restarts          binary            glue
c
c i 141.45 1408 330 5 5 185 8127 1318 3047276 8938890 22% 39 2522887 43%
c i 141.45 1408 330 5 5 185 8128 1318 3047276 8938890 22% 39 2522886 43%
c i 141.45 1408 330 5 5 185 8129 1318 3047276 8938890 22% 39 2522885 43%
c i 141.45 1408 330 5 5 185 8130 1318 3047276 8938890 22% 39 2522884 43%
c i 141.45 1408 330 5 5 185 8131 1318 3047276 8938890 22% 39 2522883 43%
c i 141.45 1408 330 5 5 185 8132 1318 3047276 8938890 22% 39 2522881 43%
c i 141.45 1408 330 5 5 185 8133 1318 3047276 8938890 22% 39 2522880 43%
c i 141.45 1408 330 5 5 185 8136 1318 3047276 8938890 22% 39 2522877 43%
c i 141.45 1408 330 5 5 185 8137 1318 3047276 8938890 22% 39 2522876 43%
c i 141.45 1408 330 5 5 185 8138 1318 3047276 8938890 22% 39 2522875 43%
c i 141.45 1408 330 5 5 185 8139 1318 3047276 8938890 22% 39 2522874 43%
c i 141.45 1408 329 5 5 185 8140 1318 3047276 8938890 22% 39 2522873 43%
c i 141.46 1408 329 5 5 185 8144 1320 3047277 8938890 22% 39 2522870 43%
c i 141.46 1408 329 5 5 185 8145 1320 3047277 8938890 22% 39 2522869 43%
c i 141.46 1408 329 5 5 185 8146 1320 3047277 8938890 22% 38 2522868 43%
c i 141.46 1408 329 5 5 185 8147 1320 3047277 8938890 22% 38 2522867 43%
c i 141.46 1408 329 5 5 185 8148 1320 3047277 8938890 22% 38 2522866 43%
c i 141.46 1408 329 5 5 185 8149 1320 3047277 8938890 22% 38 2522865 43%
c i 141.46 1408 329 5 5 185 8150 1320 3047277 8938890 22% 38 2522864 43%
c i 141.46 1408 329 5 5 185 8151 1320 3047277 8938890 22% 38 2522863 43%
c
c  seconds      switched conflicts          irredundant     variables
c            MB  reductions   redundant              trail        remaining
c              level restarts          binary            glue
c
c i 141.46 1408 329 5 5 185 8154 1321 3047277 8938890 22% 38 2522859 43%
c i 141.46 1408 329 5 5 185 8158 1324 3047277 8938890 22% 38 2522858 43%
c i 141.46 1408 329 5 5 185 8159 1324 3047277 8938890 22% 38 2522857 43%
c i 141.46 1408 329 5 5 185 8160 1324 3047277 8938890 22% 38 2522856 43%
c i 141.46 1408 329 5 5 185 8161 1324 3047277 8938890 22% 38 2522855 43%
c i 141.46 1408 329 5 5 185 8162 1324 3047277 8938890 22% 38 2522854 43%
c i 141.46 1408 329 5 5 185 8163 1324 3047277 8938890 22% 38 2522853 43%
c i 141.46 1408 329 5 5 185 8164 1324 3047277 8938890 22% 38 2522852 43%
c i 141.46 1408 329 5 5 185 8165 1324 3047277 8938890 22% 38 2522850 43%
c i 141.46 1408 329 5 5 185 8166 1324 3047277 8938890 22% 38 2522849 43%
c i 141.46 1408 329 5 5 185 8168 1324 3047278 8938890 22% 38 2522848 43%
c i 141.46 1408 329 5 5 185 8169 1324 3047278 8938890 22% 38 2522847 43%
c i 141.46 1408 329 5 5 185 8170 1324 3047278 8938890 22% 38 2522846 43%
c i 141.46 1408 329 5 5 185 8171 1324 3047278 8938890 22% 38 2522845 43%
c i 141.46 1408 328 5 5 185 8172 1324 3047278 8938890 22% 38 2522844 43%
c i 141.46 1408 328 5 5 185 8173 1324 3047278 8938890 22% 38 2522843 43%
c i 141.47 1408 328 5 5 185 8174 1324 3047278 8938890 22% 38 2522842 43%
c i 141.47 1408 328 5 5 185 8179 1326 3047280 8938890 22% 38 2522841 43%
c i 141.47 1408 328 5 5 185 8180 1326 3047280 8938890 22% 38 2522840 43%
c i 141.47 1408 328 5 5 185 8181 1326 3047280 8938890 22% 38 2522839 43%
c
c  seconds      switched conflicts          irredundant     variables
c            MB  reductions   redundant              trail        remaining
c              level restarts          binary            glue
c
c i 141.47 1408 328 5 5 185 8182 1326 3047280 8938890 22% 38 2522838 43%
c i 141.47 1408 328 5 5 185 8183 1326 3047280 8938890 22% 38 2522837 43%
c i 141.47 1408 328 5 5 185 8184 1326 3047280 8938890 22% 38 2522836 43%
c i 141.47 1408 328 5 5 185 8185 1326 3047280 8938890 22% 38 2522835 43%
c i 141.47 1408 328 5 5 185 8186 1326 3047280 8938890 22% 38 2522834 43%
c i 141.47 1408 328 5 5 185 8187 1326 3047280 8938890 22% 38 2522831 43%
c i 141.47 1408 328 5 5 185 8189 1326 3047281 8938890 22% 38 2522830 43%
c i 141.72 1408 327 5 5 185 8218 1351 3047282 8938890 22% 38 2522825 43%
c i 141.91 1408 327 5 5 185 8240 1372 3047282 8938890 22% 38 2522824 43%
c i 142.40 1408 325 5 5 185 8298 1426 3047282 8938890 21% 37 2522823 43%
c i 142.40 1408 325 5 5 185 8302 1428 3047282 8938890 21% 37 2522817 43%
c i 142.42 1408 325 5 5 185 8306 1431 3047282 8938890 21% 37 2522816 43%
c i 142.46 1408 325 5 5 185 8311 1435 3047282 8938890 21% 37 2522813 43%
c i 142.59 1408 325 5 5 185 8325 1448 3047282 8938890 21% 37 2522801 43%
c i 143.40 1408 323 5 5 185 8385 1506 3047282 8938890 21% 37 2522800 43%
c i 143.40 1408 323 5 5 185 8386 1506 3047282 8938890 21% 37 2522799 43%
c i 143.40 1408 323 5 5 185 8387 1506 3047282 8938890 21% 37 2522798 43%
c i 143.74 1408 323 5 5 185 8409 1527 3047282 8938890 21% 37 2522797 43%
c i 143.74 1408 323 5 5 185 8410 1527 3047282 8938890 21% 37 2522796 43%
c i 143.74 1408 323 5 5 185 8411 1527 3047282 8938890 21% 37 2522795 43%
c
c  seconds      switched conflicts          irredundant     variables
c            MB  reductions   redundant              trail        remaining
c              level restarts          binary            glue
c
c i 143.74 1408 323 5 5 185 8412 1527 3047282 8938890 21% 37 2522794 43%
c i 143.74 1408 322 5 5 185 8414 1527 3047282 8938890 21% 37 2522792 43%
c i 143.74 1408 322 5 5 185 8415 1527 3047282 8938890 21% 37 2522791 43%
c i 143.74 1408 322 5 5 185 8416 1527 3047282 8938890 21% 37 2522790 43%
c i 143.74 1408 322 5 5 185 8417 1527 3047282 8938890 21% 37 2522789 43%
c i 143.75 1408 322 5 5 185 8419 1527 3047282 8938890 21% 37 2522787 43%
c i 143.75 1408 322 5 5 185 8420 1527 3047282 8938890 21% 37 2522786 43%
c i 143.75 1408 322 5 5 185 8421 1527 3047282 8938890 21% 37 2522785 43%
c i 143.75 1408 322 5 5 185 8422 1527 3047282 8938890 21% 37 2522784 43%
c i 143.75 1408 322 5 5 185 8425 1527 3047282 8938890 21% 37 2522781 43%
c i 143.75 1408 322 5 5 185 8428 1529 3047282 8938890 21% 37 2522780 43%
c i 143.75 1408 322 5 5 185 8431 1531 3047282 8938890 21% 37 2522779 43%
c i 143.75 1408 322 5 5 185 8434 1533 3047282 8938890 21% 37 2522778 43%
c i 143.75 1408 322 5 5 185 8437 1535 3047282 8938890 21% 37 2522777 43%
c i 143.75 1408 322 5 5 185 8440 1537 3047282 8938890 21% 37 2522776 43%
c i 143.75 1408 322 5 5 185 8443 1539 3047282 8938890 21% 37 2522775 43%
c i 143.75 1408 322 5 5 185 8446 1541 3047282 8938890 21% 37 2522774 43%
c i 143.75 1408 322 5 5 185 8449 1543 3047282 8938890 21% 37 2522773 43%
c i 143.76 1408 322 5 5 185 8452 1545 3047282 8938890 20% 37 2522772 43%
c i 143.76 1408 322 5 5 185 8455 1547 3047282 8938890 20% 37 2522771 43%
c
c  seconds      switched conflicts          irredundant     variables
c            MB  reductions   redundant              trail        remaining
c              level restarts          binary            glue
c
c i 143.76 1408 322 5 5 185 8458 1549 3047282 8938890 20% 37 2522770 43%
c i 143.76 1408 321 5 5 185 8461 1551 3047282 8938890 20% 37 2522769 43%
c i 143.76 1408 321 5 5 185 8464 1553 3047282 8938890 20% 37 2522768 43%
c i 143.76 1408 321 5 5 185 8467 1555 3047282 8938890 20% 37 2522767 43%
c i 144.36 1408 320 5 5 185 8516 1598 3047287 8938890 20% 37 2522766 43%
c i 144.36 1408 320 5 5 185 8519 1599 3047288 8938890 20% 37 2522765 43%
c i 144.50 1408 320 5 5 185 8533 1612 3047288 8938890 20% 37 2522764 43%
c i 144.50 1408 320 5 5 185 8536 1614 3047288 8938890 20% 37 2522763 43%
c i 144.50 1408 320 5 5 185 8538 1615 3047288 8938890 20% 37 2522762 43%
c i 144.50 1408 320 5 5 185 8539 1615 3047288 8938890 20% 37 2522761 43%
c i 144.50 1408 320 5 5 185 8540 1615 3047288 8938890 20% 37 2522760 43%
c i 144.50 1408 319 5 5 185 8542 1615 3047288 8938890 20% 37 2522758 43%
c i 144.50 1408 319 5 5 185 8545 1616 3047288 8938890 20% 37 2522756 43%
c i 144.50 1408 319 5 5 185 8547 1617 3047288 8938890 20% 37 2522755 43%
c i 144.50 1408 319 5 5 185 8549 1617 3047288 8938890 20% 37 2522753 43%
c i 144.50 1408 319 5 5 185 8551 1618 3047288 8938890 20% 37 2522752 43%
c i 144.51 1408 319 5 5 185 8552 1618 3047288 8938890 20% 37 2522751 43%
c i 144.51 1408 319 5 5 185 8554 1618 3047288 8938890 20% 37 2522749 43%
c i 144.51 1408 319 5 5 185 8556 1619 3047288 8938890 20% 37 2522748 43%
c i 144.51 1408 319 5 5 185 8558 1619 3047288 8938890 20% 37 2522746 43%
c
c  seconds      switched conflicts          irredundant     variables
c            MB  reductions   redundant              trail        remaining
c              level restarts          binary            glue
c
c i 144.51 1408 319 5 5 185 8560 1620 3047288 8938890 20% 37 2522745 43%
c i 144.51 1408 319 5 5 185 8561 1620 3047288 8938890 20% 37 2522744 43%
c i 144.51 1408 319 5 5 185 8563 1620 3047288 8938890 20% 37 2522742 43%
c i 144.60 1408 319 5 5 185 8568 1624 3047288 8938890 20% 37 2522741 43%
c i 144.60 1408 319 5 5 185 8569 1624 3047288 8938890 20% 37 2522740 43%
c i 145.23 1408 318 5 5 185 8618 1671 3047289 8938890 20% 37 2522739 43%
c i 145.23 1408 318 5 5 185 8619 1671 3047289 8938890 20% 37 2522738 43%
c i 145.23 1408 318 5 5 185 8621 1671 3047289 8938890 20% 37 2522736 43%
c i 145.23 1408 318 5 5 185 8623 1672 3047289 8938890 20% 37 2522735 43%
c i 145.23 1408 318 5 5 185 8624 1672 3047289 8938890 20% 37 2522734 43%
c i 145.23 1408 318 5 5 185 8626 1672 3047289 8938890 20% 37 2522732 43%
c i 145.23 1408 318 5 5 185 8627 1672 3047289 8938890 20% 37 2522731 43%
c i 145.24 1408 318 5 5 185 8628 1672 3047289 8938890 20% 37 2522730 43%
c i 145.24 1408 317 5 5 185 8629 1672 3047289 8938890 20% 37 2522729 43%
c i 145.24 1408 317 5 5 185 8631 1672 3047289 8938890 20% 37 2522727 43%
c i 145.24 1408 317 5 5 185 8634 1674 3047289 8938890 20% 37 2522726 43%
c i 145.24 1408 317 5 5 185 8637 1676 3047289 8938890 20% 37 2522725 43%
c i 145.24 1408 317 5 5 185 8640 1678 3047289 8938890 20% 37 2522724 43%
c i 145.24 1408 317 5 5 185 8643 1680 3047289 8938890 20% 37 2522723 43%
c i 145.24 1408 317 5 5 185 8646 1682 3047289 8938890 20% 37 2522722 43%
c
c  seconds      switched conflicts          irredundant     variables
c            MB  reductions   redundant              trail        remaining
c              level restarts          binary            glue
c
c i 145.24 1408 317 5 5 185 8647 1682 3047289 8938890 20% 37 2522721 43%
c i 145.24 1408 317 5 5 185 8648 1682 3047289 8938890 20% 37 2522720 43%
c i 145.24 1408 317 5 5 185 8649 1682 3047289 8938890 19% 37 2522719 43%
c i 145.47 1408 317 5 5 185 8668 1699 3047289 8938890 19% 37 2522717 43%
c i 145.47 1408 317 5 5 185 8669 1699 3047289 8938890 19% 37 2522716 43%
c i 145.47 1408 317 5 5 185 8672 1699 3047289 8938890 19% 37 2522713 43%
c i 145.47 1408 316 5 5 185 8675 1701 3047289 8938890 19% 37 2522712 43%
c i 145.48 1408 316 5 5 185 8678 1703 3047289 8938890 19% 37 2522711 43%
c i 145.61 1408 316 5 5 185 8687 1710 3047289 8938890 19% 37 2522710 43%
c i 145.95 1408 316 5 5 185 8706 1728 3047289 8938890 19% 37 2522709 43%
c i 145.95 1408 316 5 5 185 8708 1728 3047289 8938890 19% 37 2522707 43%
c i 145.95 1408 316 5 5 185 8709 1728 3047289 8938890 19% 37 2522706 43%
c i 145.95 1408 316 5 5 185 8711 1728 3047289 8938890 19% 37 2522704 43%
c i 145.95 1408 316 5 5 185 8714 1730 3047289 8938890 19% 37 2522703 43%
c i 145.97 1408 316 5 5 185 8715 1730 3047289 8938890 19% 37 2522702 43%
c i 146.08 1408 315 5 5 185 8722 1735 3047289 8938890 19% 37 2522700 43%
c i 146.09 1408 315 5 5 185 8723 1735 3047289 8938890 19% 37 2522699 43%
c i 146.09 1408 315 5 5 185 8724 1735 3047289 8938890 19% 37 2522698 43%
c i 146.09 1408 315 5 5 185 8725 1735 3047289 8938890 19% 37 2522697 43%
c i 146.27 1408 315 5 5 185 8734 1743 3047289 8938890 19% 37 2522696 43%
c
c  seconds      switched conflicts          irredundant     variables
c            MB  reductions   redundant              trail        remaining
c              level restarts          binary            glue
c
c i 146.27 1408 315 5 5 185 8735 1743 3047289 8938890 19% 37 2522695 43%
c i 146.27 1408 315 5 5 185 8737 1743 3047289 8938890 19% 37 2522693 43%
c - 164.64 1408 260 5 6 186 9706 1281 3047097 8938890 17% 37 2522693 43%
c i 165.41 1408 252 5 6 186 9933 1355 3047153 8938890 16% 36 2522692 43%
c ] 165.45 1408 252 6 6 186 9937 1356 3047153 8938890 16% 36 2522692 43%
c { 165.45 1408 503 6 6 186 9937 1356 3047153 8938890 15% 15 2522692 43%
c i 165.67 1410 505 6 6 186 9957 1361 3047155 8938890 15% 15 2522685 43%
c i 165.69 1410 501 6 6 186 9986 1385 3047159 8938890 15% 15 2522684 43%
c i 165.69 1410 501 6 6 186 9987 1385 3047159 8938890 15% 15 2522682 43%
c i 165.69 1410 501 6 6 186 9988 1385 3047159 8938890 15% 15 2522681 43%
c i 166.47 1410 488 6 6 186 10106 1482 3047170 8938890 14% 15 2519439 43%
c i 166.50 1410 488 6 6 186 10107 1482 3047170 8938890 14% 15 2519438 43%
c i 166.50 1410 488 6 6 186 10108 1482 3047170 8938890 14% 15 2519433 43%
c i 166.59 1410 486 6 6 186 10125 1494 3047172 8938890 14% 15 2519432 43%
c i 166.61 1410 486 6 6 186 10126 1494 3047172 8938890 14% 15 2519431 43%
c i 169.19 1416 476 6 6 190 10407 1695 3047188 8938890 15% 15 2519430 43%
c i 169.38 1416 474 6 6 190 10427 1706 3047192 8938890 15% 15 2519427 43%
c i 169.45 1416 473 6 6 190 10436 1714 3047192 8938890 14% 15 2519426 43%
c d 170.30 1416 471 6 6 190 10466 1522 3096514 8817475 14% 15 2515851 43%
c b 170.86 1416 471 6 6 190 10466 1522 3096514 8817475 14% 15 2514479 43%
c
c  seconds      switched  conflicts          irredundant     variables
c            MB  reductions    redundant              trail        remaining
c              level restarts           binary            glue
c
c u 172.55 1435 471 6 6 190 10466 1511 3096524 8817475 14% 15 2514478 43%
c v 174.30 1435 471 6 6 190 10466 1493 3096540 8817475 14% 15 2514478 43%
c w 179.95 1442 471 6 6 190 10466 1532 3119221 8771363 14% 15 2514478 43%
c = 184.63 1472 471 6 6 190 10466 1532 3135015 8742062 14% 15 2508940 43%
c d 185.25 1427 471 6 6 190 10466 1519 3055148 8733509 14% 15 2470887 42%
c t 186.03 1429 471 6 6 190 10466 1519 3054947 8733509 14% 15 2470877 42%
c b 186.25 1429 471 6 6 190 10466 1519 3054947 8733509 14% 15 2468060 42%
c i 186.25 1429 471 6 6 190 10466 1519 3054947 8733509 14% 15 2468060 42%
c i 186.96 1437 472 6 6 192 10522 1536 3054965 8733509 15% 15 2468059 42%
c i 196.32 1443 452 6 6 193 11406 2088 3055017 8733508 14% 13 2468046 42%
c i 196.84 1443 445 6 6 193 11506 2178 3055017 8733508 14% 13 2468045 42%
c i 196.86 1443 444 6 6 193 11517 2182 3055023 8733508 14% 13 2468044 42%
c i 196.87 1443 444 6 6 193 11522 2185 3055024 8733508 14% 13 2468043 42%
c i 197.09 1443 441 6 6 199 11555 2213 3055027 8733508 14% 13 2468042 42%
c i 197.85 1443 435 6 6 203 11635 2289 3055029 8733508 14% 13 2468041 42%
c i 198.45 1443 431 6 6 203 11691 2337 3055035 8733508 14% 13 2467826 42%
c i 198.71 1443 438 6 6 203 11705 2338 3055039 8733508 14% 13 2467825 42%
c i 199.51 1445 449 6 6 203 11727 2347 3055042 8733507 14% 13 2467824 42%
c i 200.00 1445 447 6 6 203 11787 2384 3055049 8733507 14% 13 2467820 42%
c i 200.06 1445 446 6 6 203 11794 2388 3055051 8733507 14% 13 2430152 41%
c
c  seconds      switched  conflicts          irredundant     variables
c            MB  reductions    redundant              trail        remaining
c              level restarts           binary            glue
c
c i 200.07 1445 446 6 6 203 11796 2388 3055052 8733507 14% 13 2430151 41%
c i 200.09 1445 446 6 6 203 11797 2388 3055052 8733507 14% 13 2429212 41%
c i 200.13 1445 446 6 6 203 11798 2388 3055052 8733507 14% 13 2321837 40%
c i 200.14 1445 445 6 6 203 11805 2392 3055054 8733507 14% 13 2321836 40%
c } 200.15 1445 445 6 6 203 11807 2392 3055054 8733507 14% 13 2297280 39%
c 0 200.15 1445 445 6 6 203 11807 2392 3055054 8733507 14% 13 2297280 39%
c
c ---- [ result ] ------------------------------------------------------------
c
s UNSATISFIABLE
c
c ---- [ profiling ] ---------------------------------------------------------
c
c         151.77   75.83 %  search
c          91.38   45.65 %  focused
c          60.39   30.17 %  stable
c          42.16   21.07 %  simplify
c          39.58   19.78 %  probe
c          21.12   10.55 %  vivify
c          10.02    5.00 %  sweep
c           6.22    3.11 %  parse
c           5.21    2.60 %  substitute
c           4.81    2.41 %  reduce
c           2.58    1.29 %  walking
c           1.94    0.97 %  warmup
c           1.89    0.94 %  backbone
c           1.34    0.67 %  transitive
c =============================================
c         200.15  100.00 %  total
c
c ---- [ statistics ] --------------------------------------------------------
c
c chronological:                         3533               30 %  conflicts
c conflicts:                            11807               58.99 per second
c decisions:                           180757               15.31 per conflict
c jumped_reasons:                    69438365                7 %  propagations
c propagations:                    1058654988          5289223    per second
c queue_decisions:                     111100               61 %  decision
c random_decisions:                     26715               15 %  decision
c random_sequences:                         9             1312    interval
c reductions:                               6             1968    interval
c rephased:                                 3             3936    interval
c restarts:                               203               58.16 interval
c score_decisions:                      42942               24 %  decision
c substituted:                        1191092               20 %  variables
c switched:                                 6             1968    interval
c vivified:                               882                6 %  checks
c vivify_checks:                        15395             7698    per vivify
c vivify_units:                             2                0 %  variables
c walk_improved:                            1              100 %  walks
c walks:                                    1            11807    interval
c
c ---- [ resources ] ---------------------------------------------------------
c
c maximum-resident-set-size:       2092924928 bytes       1996 MB
c process-time:                         3m 20s             200.15 seconds
c
c ---- [ shutting down ] -----------------------------------------------------
c
c exit 20
